read_dump ${global_data_path}/initial_states/${initial_num_atoms}.dat 0 x y z

include ${script_path}/compute.lmp

velocity all create ${initial_temperature} 12345 dist gaussian
velocity all zero linear
velocity all zero angular


thermo_style custom step temp pe ke etotal press

### STAGE 1 ###
thermo 1000
fix run_nve_1 all nve
timestep ${dt}
run 100000
unfix run_nve_1
